Minimize
 Cost:   LoadFunction 
Subject To
Coverage.1: d_1_0 + d_1_1 + d_1_2 + d_1_3 + d_1_4 + d_1_5 + d_1_6 + d_1_7 + d_1_8 + d_1_9 + d_1_10 + d_1_11 + d_1_12 + d_1_13 + d_1_14 + d_1_15 + d_1_16 + d_1_17 + d_1_18 + d_1_19 + d_1_20 + d_1_21 + d_1_22 + d_1_23 + d_1_24 + d_1_25 + d_1_26 + d_1_27 + d_1_28 + d_1_29 + d_1_30 + d_1_31 + d_1_32 + d_1_33 + d_1_34 + d_1_35  >= 48
Coverage.2: d_2_0 + d_2_1 + d_2_2 + d_2_3 + d_2_4 + d_2_5 + d_2_6 + d_2_7 + d_2_8 + d_2_9 + d_2_10 + d_2_11 + d_2_12 + d_2_13 + d_2_14 + d_2_15 + d_2_16 + d_2_17 + d_2_18 + d_2_19 + d_2_20 + d_2_21 + d_2_22 + d_2_23 + d_2_24 + d_2_25 + d_2_26 + d_2_27 + d_2_28 + d_2_29 + d_2_30 + d_2_31 + d_2_32 + d_2_33 + d_2_34 + d_2_35 + d_2_36 + d_2_37 + d_2_38 + d_2_39 + d_2_40 + d_2_41 + d_2_42 + d_2_43 + d_2_44 + d_2_45 + d_2_46 + d_2_47 + d_2_48 + d_2_49 + d_2_50 + d_2_51 + d_2_52 + d_2_53 + d_2_54 + d_2_55 + d_2_56 + d_2_57 + d_2_58 + d_2_59 + d_2_60 + d_2_61 + d_2_62 + d_2_63 + d_2_64 + d_2_65 + d_2_66 + d_2_67 + d_2_68 + d_2_69 + d_2_70 + d_2_71 + d_2_72 + d_2_73 + d_2_74 + d_2_75 + d_2_76 + d_2_77 + d_2_78 + d_2_79 + d_2_80 + d_2_81 + d_2_82 + d_2_83 + d_2_84 + d_2_85 + d_2_86 + d_2_87 + d_2_88 + d_2_89 + d_2_90 + d_2_91 + d_2_92 + d_2_93 + d_2_94 + d_2_95 + d_2_96 + d_2_97 + d_2_98 + d_2_99 + d_2_100 + d_2_101 + d_2_102 + d_2_103 + d_2_104 + d_2_105 + d_2_106 + d_2_107 + d_2_108 + d_2_109 + d_2_110 + d_2_111 + d_2_112 + d_2_113 + d_2_114 + d_2_115 + d_2_116 + d_2_117 + d_2_118 + d_2_119 + d_2_120 + d_2_121 + d_2_122 + d_2_123 + d_2_124 + d_2_125 + d_2_126 + d_2_127 + d_2_128 + d_2_129 + d_2_130 + d_2_131 + d_2_132 + d_2_133 + d_2_134 + d_2_135 + d_2_136 + d_2_137 + d_2_138 + d_2_139 + d_2_140 + d_2_141 + d_2_142 + d_2_143 + d_2_144 + d_2_145 + d_2_146 + d_2_147 + d_2_148 + d_2_149 + d_2_150 + d_2_151 + d_2_152 + d_2_153 + d_2_154 + d_2_155 + d_2_156 + d_2_157 + d_2_158 + d_2_159 + d_2_160 + d_2_161 + d_2_162 + d_2_163 + d_2_164 + d_2_165 + d_2_166 + d_2_167 + d_2_168 + d_2_169 + d_2_170 + d_2_171 + d_2_172 + d_2_173 + d_2_174 + d_2_175 + d_2_176 + d_2_177 + d_2_178 + d_2_179 + d_2_180 + d_2_181 + d_2_182 + d_2_183 + d_2_184 + d_2_185 + d_2_186 + d_2_187 + d_2_188 + d_2_189 + d_2_190 + d_2_191 + d_2_192 + d_2_193 + d_2_194 + d_2_195 + d_2_196 + d_2_197 + d_2_198 + d_2_199 + d_2_200 + d_2_201 + d_2_202 + d_2_203 + d_2_204 + d_2_205 + d_2_206 + d_2_207 + d_2_208 + d_2_209 + d_2_210 + d_2_211 + d_2_212 + d_2_213 + d_2_214 + d_2_215  >= 48
ProcLoad.M3: Load_M3  -  d_1_22 -  d_2_79 -  d_2_42 -  d_2_200 -  d_2_174 -  d_2_148 -  d_2_187 -  d_2_63 -  d_2_156 -  d_1_10 -  d_2_183 -  d_2_28 -  d_2_12 -  d_2_149 -  d_2_124 -  d_2_103 -  d_2_87 -  d_1_5 -  d_2_175 -  d_1_27 -  d_2_201 -  d_2_177 -  d_2_86 -  d_2_193 -  d_2_167 -  d_2_202 -  d_2_196 -  d_2_179 -  d_2_137 -  d_2_17 -  d_2_7 -  d_1_11 -  d_2_88 -  d_2_130 -  d_2_11 -  d_2_108 -  d_2_107 -  d_1_1 -  d_2_152 -  d_2_26 -  d_2_210 -  d_2_184 = 0
ProcLoad.M5: Load_M5  -  d_2_57 -  d_2_69 -  d_2_62 -  d_2_24 -  d_2_14 -  d_2_19 -  d_2_145 -  d_1_0 -  d_2_115 -  d_2_120 -  d_2_64 -  d_2_15 -  d_2_127 -  d_2_18 -  d_2_163 -  d_2_142 -  d_2_204 -  d_2_119 -  d_2_129 -  d_1_26 -  d_2_35 -  d_2_188 -  d_2_82 -  d_2_70 -  d_2_9 -  d_1_6 -  d_2_91 -  d_2_114 -  d_1_33 -  d_2_214 -  d_2_58 -  d_2_27 -  d_2_10 -  d_2_84 -  d_2_178 -  d_2_48 -  d_2_173 -  d_1_28 -  d_2_132 -  d_2_74 -  d_2_165 -  d_1_3 = 0
ProcLoad.M12: Load_M12  -  d_1_22 -  d_2_39 -  d_2_195 -  d_2_174 -  d_2_96 -  d_2_90 -  d_2_65 -  d_2_1 -  d_2_120 -  d_2_54 -  d_1_18 -  d_2_168 -  d_1_26 -  d_2_166 -  d_2_41 -  d_2_77 -  d_2_45 -  d_2_37 -  d_2_2 -  d_2_114 -  d_2_27 -  d_2_135 -  d_2_162 -  d_2_137 -  d_2_122 -  d_2_20 -  d_2_182 -  d_2_22 -  d_2_111 -  d_2_152 -  d_2_48 -  d_2_173 -  d_1_30 -  d_2_198 -  d_2_57 -  d_2_80 -  d_2_42 -  d_2_69 -  d_2_79 -  d_2_200 -  d_2_147 -  d_2_3 -  d_2_161 -  d_1_2 -  d_2_33 -  d_2_50 -  d_2_191 -  d_2_143 -  d_2_127 -  d_1_20 -  d_2_119 -  d_2_34 -  d_2_93 -  d_2_103 -  d_2_207 -  d_2_138 -  d_2_155 -  d_2_94 -  d_2_206 -  d_2_146 -  d_2_170 -  d_2_91 -  d_2_101 -  d_2_131 -  d_2_196 -  d_2_110 -  d_2_179 -  d_2_172 -  d_2_7 -  d_2_164 -  d_2_88 -  d_2_132 = 0
ProcLoad.M10: Load_M10  -  d_2_194 -  d_2_38 -  d_2_96 -  d_2_151 -  d_2_65 -  d_2_115 -  d_1_23 -  d_2_204 -  d_2_35 -  d_2_126 -  d_2_45 -  d_2_154 -  d_2_121 -  d_2_76 -  d_2_2 -  d_1_31 -  d_1_17 -  d_2_113 -  d_1_33 -  d_2_167 -  d_2_13 -  d_2_130 -  d_2_11 -  d_2_89 -  d_2_22 -  d_2_99 -  d_1_1 -  d_2_48 -  d_2_173 -  d_2_26 -  d_2_128 -  d_2_215 -  d_2_80 -  d_2_6 -  d_2_200 -  d_2_62 -  d_2_60 -  d_2_63 -  d_2_180 -  d_2_158 -  d_2_71 -  d_2_191 -  d_2_18 -  d_2_72 -  d_2_134 -  d_2_142 -  d_2_190 -  d_2_149 -  d_2_124 -  d_2_192 -  d_2_23 -  d_2_82 -  d_2_30 -  d_2_68 -  d_2_214 -  d_2_4 -  d_2_5 -  d_2_213 -  d_2_196 -  d_2_105 -  d_2_104 -  d_2_164 -  d_2_0 -  d_1_25 -  d_2_55 -  d_2_141 -  d_2_107 -  d_2_8 -  d_2_78 -  d_2_74 -  d_2_106 -  d_2_184 = 0
ProcLoad.M4: Load_M4  -  d_2_43 -  d_2_52 -  d_2_102 -  d_2_115 -  d_2_120 -  d_2_54 -  d_2_97 -  d_2_117 -  d_2_166 -  d_2_188 -  d_2_175 -  d_2_126 -  d_2_77 -  d_2_154 -  d_2_139 -  d_2_53 -  d_2_16 -  d_2_136 -  d_2_113 -  d_2_193 -  d_2_167 -  d_2_13 -  d_2_135 -  d_2_10 -  d_2_17 -  d_1_9 -  d_2_46 -  d_2_178 -  d_2_89 -  d_2_189 -  d_2_98 -  d_2_157 -  d_2_6 -  d_2_19 -  d_2_161 -  d_1_0 -  d_2_145 -  d_2_180 -  d_2_33 -  d_2_156 -  d_1_10 -  d_2_49 -  d_2_56 -  d_1_7 -  d_2_72 -  d_2_95 -  d_2_142 -  d_2_119 -  d_2_149 -  d_2_100 -  d_2_103 -  d_1_15 -  d_2_70 -  d_2_92 -  d_2_9 -  d_2_201 -  d_2_146 -  d_2_170 -  d_2_197 -  d_2_85 -  d_2_109 -  d_2_125 -  d_2_36 -  d_2_205 -  d_2_88 -  d_2_203 -  d_2_108 -  d_2_83 -  d_2_66 -  d_1_24 -  d_2_210 -  d_2_51 = 0
ProcLoad.M11: Load_M11  -  d_2_43 -  d_2_38 -  d_2_39 -  d_2_147 -  d_2_102 -  d_2_186 -  d_2_59 -  d_2_61 -  d_2_54 -  d_2_49 -  d_1_23 -  d_2_143 -  d_2_97 -  d_2_56 -  d_2_159 -  d_2_211 -  d_1_20 -  d_2_208 -  d_2_181 -  d_2_116 -  d_1_15 -  d_2_45 -  d_2_139 -  d_2_30 -  d_2_206 -  d_2_170 -  d_2_68 -  d_2_113 -  d_2_131 -  d_2_4 -  d_2_213 -  d_2_105 -  d_2_164 -  d_2_122 -  d_1_35 -  d_2_46 -  d_2_89 -  d_2_8 -  d_2_111 -  d_1_16 -  d_1_14 -  d_2_150 = 0
ProcLoad.M7: Load_M7  -  d_2_157 -  d_2_6 -  d_2_52 -  d_2_3 -  d_2_90 -  d_2_65 -  d_2_33 -  d_1_34 -  d_1_7 -  d_2_134 -  d_2_95 -  d_2_190 -  d_2_100 -  d_2_93 -  d_2_34 -  d_2_166 -  d_2_41 -  d_2_92 -  d_2_121 -  d_2_76 -  d_2_32 -  d_2_37 -  d_2_67 -  d_2_2 -  d_1_17 -  d_2_31 -  d_2_125 -  d_2_13 -  d_2_169 -  d_2_162 -  d_2_104 -  d_2_75 -  d_2_123 -  d_2_99 -  d_2_141 -  d_1_29 -  d_2_171 -  d_2_144 -  d_1_4 -  d_1_30 -  d_2_25 -  d_2_51 = 0
ProcLoad.M1: Load_M1  -  d_2_21 -  d_2_195 -  d_2_212 -  d_2_96 -  d_1_12 -  d_2_151 -  d_2_140 -  d_1_2 -  d_2_180 -  d_2_81 -  d_2_158 -  d_1_21 -  d_2_50 -  d_2_117 -  d_2_133 -  d_2_47 -  d_2_40 -  d_2_192 -  d_2_23 -  d_2_155 -  d_2_138 -  d_2_126 -  d_2_77 -  d_2_94 -  d_2_153 -  d_2_53 -  d_2_209 -  d_2_197 -  d_1_8 -  d_2_109 -  d_2_5 -  d_2_135 -  d_2_205 -  d_2_110 -  d_2_20 -  d_2_203 -  d_1_25 -  d_2_22 -  d_1_24 -  d_2_78 -  d_2_98 -  d_2_128 = 0
ProcLoad.M8: Load_M8  -  d_2_43 -  d_2_38 -  d_2_24 -  d_1_12 -  d_2_140 -  d_2_176 -  d_2_81 -  d_2_59 -  d_2_64 -  d_2_15 -  d_1_19 -  d_2_35 -  d_2_87 -  d_1_5 -  d_2_181 -  d_2_118 -  d_2_116 -  d_2_41 -  d_2_139 -  d_2_32 -  d_2_209 -  d_2_136 -  d_2_114 -  d_2_185 -  d_2_86 -  d_2_29 -  d_2_202 -  d_2_162 -  d_2_122 -  d_2_44 -  d_2_75 -  d_2_11 -  d_2_123 -  d_2_182 -  d_2_189 -  d_2_99 -  d_1_4 -  d_1_28 -  d_2_42 -  d_2_62 -  d_2_148 -  d_2_186 -  d_2_145 -  d_2_50 -  d_2_156 -  d_2_28 -  d_2_134 -  d_2_95 -  d_2_47 -  d_2_133 -  d_2_100 -  d_2_124 -  d_2_192 -  d_2_23 -  d_2_207 -  d_2_70 -  d_2_201 -  d_2_131 -  d_2_205 -  d_2_110 -  d_2_179 -  d_2_105 -  d_1_35 -  d_2_203 -  d_2_84 -  d_2_55 -  d_2_171 -  d_2_144 -  d_2_132 -  d_2_165 -  d_2_106 -  d_2_150 = 0
ProcLoad.M2: Load_M2  -  d_2_194 -  d_2_39 -  d_2_14 -  d_2_151 -  d_2_90 -  d_2_187 -  d_2_176 -  d_2_81 -  d_2_59 -  d_2_64 -  d_2_97 -  d_2_183 -  d_2_163 -  d_2_129 -  d_2_188 -  d_2_175 -  d_2_76 -  d_2_37 -  d_2_67 -  d_2_153 -  d_2_209 -  d_2_31 -  d_2_193 -  d_2_29 -  d_2_202 -  d_2_160 -  d_2_137 -  d_1_11 -  d_2_123 -  d_1_29 -  d_1_16 -  d_2_98 -  d_2_25 -  d_1_3 -  d_2_157 -  d_2_69 -  d_2_79 -  d_2_21 -  d_2_60 -  d_2_19 -  d_2_73 -  d_2_148 -  d_1_32 -  d_2_186 -  d_2_61 -  d_2_56 -  d_2_18 -  d_2_159 -  d_2_208 -  d_2_40 -  d_2_138 -  d_2_94 -  d_2_177 -  d_2_206 -  d_2_68 -  d_2_85 -  d_2_91 -  d_2_101 -  d_1_8 -  d_2_214 -  d_2_109 -  d_2_213 -  d_2_172 -  d_2_199 -  d_2_66 -  d_2_141 -  d_2_107 -  d_2_171 -  d_2_78 -  d_2_165 -  d_2_51 -  d_2_184 = 0
ProcLoad.M9: Load_M9  -  d_2_215 -  d_2_194 -  d_2_80 -  d_2_60 -  d_2_73 -  d_2_161 -  d_1_32 -  d_2_176 -  d_2_1 -  d_2_191 -  d_2_71 -  d_2_112 -  d_1_19 -  d_2_72 -  d_1_18 -  d_2_168 -  d_2_118 -  d_2_207 -  d_2_154 -  d_1_31 -  d_2_146 -  d_2_16 -  d_2_85 -  d_2_136 -  d_2_101 -  d_2_185 -  d_2_29 -  d_2_36 -  d_2_160 -  d_2_172 -  d_1_9 -  d_2_0 -  d_2_44 -  d_2_199 -  d_1_13 -  d_2_182 -  d_2_189 -  d_2_55 -  d_2_66 -  d_2_83 -  d_2_198 -  d_2_106 = 0
ProcLoad.M6: Load_M6  -  d_2_52 -  d_2_14 -  d_2_102 -  d_2_140 -  d_2_187 -  d_2_1 -  d_2_15 -  d_1_34 -  d_2_211 -  d_2_163 -  d_2_12 -  d_2_204 -  d_2_87 -  d_2_181 -  d_2_118 -  d_2_116 -  d_1_27 -  d_2_121 -  d_1_6 -  d_2_53 -  d_2_31 -  d_2_185 -  d_2_86 -  d_2_169 -  d_2_160 -  d_2_20 -  d_2_130 -  d_2_75 -  d_2_46 -  d_2_178 -  d_2_152 -  d_2_26 -  d_2_198 -  d_2_128 -  d_2_25 -  d_2_57 -  d_2_215 -  d_2_21 -  d_2_147 -  d_2_3 -  d_2_212 -  d_1_21 -  d_2_61 -  d_2_71 -  d_2_143 -  d_2_112 -  d_2_127 -  d_2_159 -  d_2_47 -  d_2_190 -  d_2_40 -  d_2_93 -  d_2_155 -  d_2_9 -  d_2_177 -  d_2_197 -  d_2_58 -  d_2_4 -  d_2_125 -  d_2_5 -  d_2_36 -  d_2_7 -  d_2_84 -  d_2_199 -  d_1_13 -  d_2_108 -  d_2_83 -  d_2_8 -  d_2_144 -  d_2_74 -  d_2_210 -  d_1_14 = 0
MaxProcLoadBound.M3: Load_M3 - LoadFunction <= 0
MaxProcLoadBound.M5: Load_M5 - LoadFunction <= 0
MaxProcLoadBound.M12: Load_M12 - LoadFunction <= 0
MaxProcLoadBound.M10: Load_M10 - LoadFunction <= 0
MaxProcLoadBound.M4: Load_M4 - LoadFunction <= 0
MaxProcLoadBound.M11: Load_M11 - LoadFunction <= 0
MaxProcLoadBound.M7: Load_M7 - LoadFunction <= 0
MaxProcLoadBound.M1: Load_M1 - LoadFunction <= 0
MaxProcLoadBound.M8: Load_M8 - LoadFunction <= 0
MaxProcLoadBound.M2: Load_M2 - LoadFunction <= 0
MaxProcLoadBound.M9: Load_M9 - LoadFunction <= 0
MaxProcLoadBound.M6: Load_M6 - LoadFunction <= 0
RuleLoad.S6:  2 d_2_52 + 2 d_2_14 + 2 d_2_102 + 2 d_2_140 + 2 d_2_187 + 2 d_2_1 + 2 d_2_15 + 2 d_1_34 + 4 d_2_211 + 2 d_2_163 + 4 d_2_12 + 2 d_2_204 + 2 d_2_87 + 2 d_2_181 + 2 d_2_118 + 2 d_2_116 + 2 d_1_27 + 2 d_2_121 + 2 d_1_6 + 2 d_2_53 + 2 d_2_31 + 2 d_2_185 + 2 d_2_86 + 4 d_2_169 + 2 d_2_160 + 2 d_2_20 + 2 d_2_130 + 2 d_2_75 + 2 d_2_46 + 2 d_2_178 + 2 d_2_152 + 2 d_2_26 + 2 d_2_198 + 2 d_2_128 + 2 d_2_25 + 2 d_2_57 + 2 d_2_215 + 2 d_2_21 + 2 d_2_147 + 2 d_2_3 + 4 d_2_212 + 2 d_1_21 + 2 d_2_61 + 2 d_2_71 + 2 d_2_143 + 4 d_2_112 + 2 d_2_127 + 2 d_2_159 + 2 d_2_47 + 2 d_2_190 + 2 d_2_40 + 2 d_2_93 + 2 d_2_155 + 2 d_2_9 + 2 d_2_177 + 2 d_2_197 + 4 d_2_58 + 2 d_2_4 + 2 d_2_125 + 2 d_2_5 + 2 d_2_36 + 2 d_2_7 + 2 d_2_84 + 2 d_2_199 + 2 d_1_13 + 2 d_2_108 + 2 d_2_83 + 2 d_2_8 + 2 d_2_144 + 2 d_2_74 + 2 d_2_210 + 2 d_1_14 <= 189
RuleLoad.S1:  1 d_1_22 + 2 d_2_195 + 2 d_2_96 + 3 d_1_12 + 2 d_2_151 + 2 d_2_140 + 2 d_2_81 + 1 d_1_23 + 1 d_1_34 + 1 d_1_19 + 2 d_2_117 + 1 d_1_18 + 1 d_1_26 + 1 d_1_5 + 2 d_2_126 + 2 d_2_77 + 1 d_1_27 + 1 d_1_31 + 1 d_1_6 + 2 d_2_153 + 2 d_2_53 + 1 d_1_17 + 2 d_2_209 + 1 d_1_33 + 2 d_2_135 + 2 d_2_20 + 1 d_1_9 + 1 d_1_11 + 2 d_2_22 + 1 d_1_29 + 1 d_1_1 + 1 d_1_16 + 2 d_2_98 + 1 d_1_4 + 1 d_1_28 + 1 d_1_30 + 2 d_2_128 + 1 d_1_3 + 2 d_2_21 + 2 d_2_212 + 3 d_1_2 + 1 d_1_32 + 1 d_1_0 + 2 d_2_180 + 3 d_1_21 + 2 d_2_158 + 2 d_2_50 + 1 d_1_10 + 1 d_1_7 + 1 d_1_20 + 2 d_2_47 + 2 d_2_133 + 2 d_2_40 + 2 d_2_192 + 2 d_2_23 + 1 d_1_15 + 2 d_2_138 + 2 d_2_155 + 2 d_2_94 + 2 d_2_197 + 3 d_1_8 + 2 d_2_109 + 2 d_2_5 + 2 d_2_205 + 2 d_2_110 + 1 d_1_35 + 2 d_2_203 + 3 d_1_25 + 1 d_1_13 + 3 d_1_24 + 2 d_2_78 + 1 d_1_14 <= 189
RuleLoad.S11:  2 d_2_43 + 2 d_2_38 + 2 d_2_39 + 2 d_2_147 + 2 d_2_102 + 2 d_2_186 + 2 d_2_59 + 2 d_2_61 + 2 d_2_54 + 2 d_2_49 + 2 d_1_23 + 2 d_2_143 + 2 d_2_97 + 2 d_2_56 + 2 d_2_159 + 2 d_2_211 + 2 d_1_20 + 2 d_2_208 + 2 d_2_181 + 2 d_2_116 + 2 d_1_15 + 2 d_2_45 + 2 d_2_139 + 2 d_2_30 + 2 d_2_206 + 2 d_2_170 + 2 d_2_68 + 2 d_2_113 + 2 d_2_131 + 2 d_2_4 + 2 d_2_213 + 2 d_2_105 + 2 d_2_164 + 2 d_2_122 + 2 d_1_35 + 2 d_2_46 + 2 d_2_89 + 2 d_2_8 + 2 d_2_111 + 2 d_1_16 + 2 d_1_14 + 2 d_2_150 <= 189
RuleLoad.S9:  2 d_2_194 + 2 d_1_22 + 2 d_2_39 + 4 d_2_195 + 4 d_2_174 + 2 d_2_96 + 2 d_2_90 + 2 d_2_65 + 2 d_2_176 + 3 d_2_1 + 2 d_2_120 + 2 d_2_54 + 2 d_1_19 + 3 d_1_18 + 4 d_2_168 + 2 d_1_26 + 2 d_2_166 + 2 d_2_118 + 2 d_2_41 + 2 d_2_77 + 2 d_2_45 + 2 d_2_154 + 2 d_2_37 + 2 d_1_31 + 2 d_2_2 + 2 d_2_16 + 2 d_2_136 + 2 d_2_114 + 2 d_2_185 + 4 d_2_27 + 2 d_2_29 + 2 d_2_135 + 2 d_2_162 + 2 d_2_160 + 2 d_2_137 + 2 d_2_122 + 2 d_1_9 + 2 d_2_20 + 2 d_2_44 + 3 d_2_182 + 2 d_2_22 + 2 d_2_189 + 4 d_2_111 + 2 d_2_152 + 2 d_2_48 + 2 d_2_173 + 2 d_1_30 + 3 d_2_198 + 2 d_2_57 + 2 d_2_215 + 3 d_2_80 + 2 d_2_42 + 2 d_2_69 + 2 d_2_79 + 2 d_2_200 + 2 d_2_147 + 2 d_2_3 + 2 d_2_60 + 2 d_2_73 + 3 d_2_161 + 2 d_1_2 + 2 d_1_32 + 2 d_2_33 + 2 d_2_50 + 3 d_2_191 + 2 d_2_143 + 2 d_2_71 + 2 d_2_112 + 2 d_2_127 + 2 d_2_72 + 2 d_1_20 + 2 d_2_119 + 4 d_2_34 + 2 d_2_93 + 2 d_2_103 + 3 d_2_207 + 2 d_2_155 + 2 d_2_138 + 2 d_2_94 + 2 d_2_206 + 2 d_2_170 + 3 d_2_146 + 2 d_2_85 + 2 d_2_91 + 3 d_2_101 + 2 d_2_131 + 2 d_2_36 + 2 d_2_196 + 2 d_2_179 + 2 d_2_110 + 3 d_2_172 + 2 d_2_164 + 2 d_2_7 + 2 d_2_0 + 2 d_2_88 + 2 d_2_199 + 2 d_1_13 + 2 d_2_55 + 2 d_2_66 + 2 d_2_83 + 2 d_2_132 + 2 d_2_106 <= 189
RuleLoad.S10:  2 d_2_194 + 2 d_2_38 + 2 d_2_96 + 2 d_2_151 + 2 d_2_65 + 2 d_2_115 + 2 d_1_23 + 2 d_2_204 + 2 d_2_35 + 2 d_2_126 + 2 d_2_45 + 2 d_2_154 + 2 d_2_121 + 2 d_2_76 + 2 d_2_2 + 2 d_1_31 + 2 d_1_17 + 2 d_2_113 + 2 d_1_33 + 2 d_2_167 + 2 d_2_13 + 2 d_2_130 + 2 d_2_11 + 2 d_2_89 + 2 d_2_22 + 2 d_2_99 + 2 d_1_1 + 2 d_2_48 + 2 d_2_173 + 2 d_2_26 + 2 d_2_128 + 2 d_2_215 + 2 d_2_80 + 2 d_2_6 + 2 d_2_200 + 2 d_2_62 + 2 d_2_60 + 4 d_2_63 + 2 d_2_180 + 4 d_2_158 + 2 d_2_71 + 2 d_2_191 + 2 d_2_18 + 2 d_2_72 + 2 d_2_134 + 2 d_2_142 + 2 d_2_190 + 2 d_2_149 + 2 d_2_124 + 2 d_2_192 + 2 d_2_23 + 4 d_2_82 + 4 d_2_30 + 2 d_2_68 + 2 d_2_214 + 2 d_2_4 + 2 d_2_5 + 2 d_2_213 + 2 d_2_196 + 2 d_2_105 + 4 d_2_104 + 2 d_2_164 + 4 d_2_0 + 2 d_1_25 + 2 d_2_55 + 2 d_2_141 + 2 d_2_107 + 2 d_2_8 + 2 d_2_78 + 2 d_2_74 + 2 d_2_106 + 2 d_2_184 <= 189
RuleLoad.S4:  2 d_2_43 + 1 d_2_194 + 1 d_2_38 + 2 d_2_52 + 1 d_2_24 + 1 d_2_14 + 1 d_2_195 + 3 d_2_102 + 1 d_2_96 + 1 d_2_140 + 1 d_2_187 + 1 d_2_59 + 2 d_2_54 + 1 d_2_183 + 1 d_2_211 + 1 d_2_163 + 1 d_2_12 + 1 d_2_168 + 1 d_2_129 + 1 d_2_87 + 1 d_2_181 + 1 d_2_116 + 1 d_2_41 + 2 d_2_126 + 2 d_2_77 + 1 d_2_45 + 3 d_2_139 + 1 d_2_32 + 1 d_2_2 + 4 d_2_16 + 3 d_2_113 + 1 d_2_185 + 1 d_2_29 + 1 d_2_202 + 3 d_2_135 + 1 d_2_162 + 4 d_2_10 + 1 d_2_122 + 1 d_2_130 + 1 d_2_75 + 2 d_2_89 + 1 d_2_123 + 1 d_2_99 + 1 d_2_111 + 1 d_2_152 + 1 d_2_173 + 1 d_2_26 + 3 d_2_157 + 1 d_2_215 + 1 d_2_80 + 1 d_2_69 + 1 d_2_200 + 1 d_2_21 + 1 d_2_60 + 1 d_2_3 + 1 d_2_212 + 1 d_2_73 + 3 d_2_161 + 1 d_2_63 + 3 d_2_145 + 3 d_2_180 + 1 d_2_61 + 2 d_1_10 + 1 d_2_143 + 1 d_2_71 + 1 d_2_112 + 2 d_2_56 + 2 d_1_7 + 1 d_2_28 + 2 d_2_95 + 1 d_2_133 + 1 d_2_208 + 3 d_2_119 + 1 d_2_34 + 1 d_2_192 + 3 d_2_103 + 1 d_2_23 + 2 d_1_15 + 1 d_2_155 + 1 d_2_138 + 4 d_2_92 + 2 d_2_9 + 1 d_2_177 + 1 d_2_30 + 1 d_2_206 + 3 d_2_170 + 1 d_2_68 + 1 d_2_101 + 1 d_2_58 + 3 d_2_109 + 1 d_2_5 + 1 d_2_196 + 1 d_2_179 + 1 d_2_105 + 1 d_2_7 + 2 d_2_88 + 1 d_2_141 + 2 d_2_83 + 2 d_1_24 + 1 d_2_171 + 1 d_2_107 + 1 d_2_78 + 1 d_2_165 + 2 d_2_210 + 2 d_2_51 + 1 d_2_39 + 1 d_2_174 + 1 d_2_151 + 1 d_2_65 + 1 d_2_90 + 1 d_2_176 + 1 d_2_1 + 1 d_2_81 + 3 d_2_115 + 1 d_2_15 + 1 d_2_64 + 2 d_2_120 + 3 d_2_97 + 4 d_2_117 + 1 d_2_204 + 1 d_2_35 + 3 d_2_166 + 1 d_2_118 + 3 d_2_188 + 3 d_2_175 + 3 d_2_154 + 1 d_2_37 + 1 d_2_76 + 1 d_2_121 + 1 d_2_67 + 1 d_2_153 + 2 d_2_53 + 1 d_2_209 + 3 d_2_136 + 1 d_2_31 + 1 d_2_114 + 1 d_2_86 + 2 d_2_193 + 3 d_2_167 + 3 d_2_13 + 1 d_2_27 + 1 d_2_169 + 1 d_2_160 + 1 d_2_137 + 4 d_2_17 + 1 d_2_20 + 2 d_1_9 + 1 d_2_44 + 2 d_2_46 + 1 d_2_11 + 3 d_2_178 + 1 d_2_182 + 1 d_2_22 + 2 d_2_189 + 1 d_2_48 + 2 d_2_98 + 1 d_2_198 + 1 d_2_128 + 1 d_2_25 + 1 d_2_57 + 1 d_2_42 + 2 d_2_6 + 1 d_2_79 + 1 d_2_147 + 1 d_2_62 + 2 d_2_19 + 1 d_2_148 + 1 d_2_186 + 2 d_1_0 + 1 d_2_158 + 2 d_2_33 + 3 d_2_156 + 1 d_2_50 + 4 d_2_49 + 1 d_2_191 + 1 d_2_127 + 1 d_2_18 + 1 d_2_159 + 1 d_2_134 + 2 d_2_72 + 2 d_2_142 + 1 d_2_190 + 1 d_2_47 + 2 d_2_149 + 1 d_2_40 + 1 d_2_124 + 1 d_2_93 + 3 d_2_100 + 1 d_2_207 + 1 d_2_82 + 2 d_2_70 + 1 d_2_94 + 2 d_2_201 + 2 d_2_146 + 3 d_2_197 + 3 d_2_85 + 1 d_2_91 + 1 d_2_131 + 1 d_2_214 + 3 d_2_125 + 1 d_2_4 + 1 d_2_213 + 3 d_2_36 + 2 d_2_205 + 1 d_2_110 + 1 d_2_172 + 1 d_2_104 + 1 d_2_164 + 1 d_2_0 + 3 d_2_203 + 1 d_2_84 + 1 d_2_199 + 3 d_2_108 + 1 d_2_55 + 2 d_2_66 + 1 d_2_144 + 1 d_2_8 + 1 d_2_132 + 1 d_2_74 + 1 d_2_106 + 1 d_2_184 + 1 d_2_150 <= 189
RuleLoad.S8:  2 d_2_43 + 2 d_2_38 + 4 d_2_24 + 2 d_1_12 + 2 d_2_140 + 2 d_2_176 + 2 d_2_81 + 2 d_2_59 + 2 d_2_64 + 2 d_2_15 + 2 d_1_19 + 2 d_2_35 + 2 d_2_87 + 2 d_1_5 + 2 d_2_181 + 2 d_2_118 + 2 d_2_116 + 2 d_2_41 + 2 d_2_139 + 4 d_2_32 + 2 d_2_209 + 2 d_2_136 + 2 d_2_114 + 2 d_2_185 + 2 d_2_86 + 2 d_2_29 + 2 d_2_202 + 2 d_2_162 + 2 d_2_122 + 4 d_2_44 + 2 d_2_75 + 2 d_2_11 + 2 d_2_123 + 2 d_2_182 + 2 d_2_189 + 2 d_2_99 + 2 d_1_4 + 2 d_1_28 + 2 d_2_42 + 2 d_2_62 + 2 d_2_148 + 2 d_2_186 + 2 d_2_145 + 2 d_2_50 + 2 d_2_156 + 4 d_2_28 + 2 d_2_134 + 2 d_2_95 + 2 d_2_47 + 4 d_2_133 + 2 d_2_100 + 2 d_2_124 + 2 d_2_192 + 2 d_2_23 + 2 d_2_207 + 2 d_2_70 + 2 d_2_201 + 2 d_2_131 + 2 d_2_205 + 2 d_2_110 + 2 d_2_179 + 2 d_2_105 + 2 d_1_35 + 2 d_2_203 + 2 d_2_84 + 2 d_2_55 + 2 d_2_171 + 2 d_2_144 + 2 d_2_132 + 2 d_2_165 + 2 d_2_106 + 4 d_2_150 <= 189
RuleLoad.S2:  2 d_2_194 + 1 d_1_22 + 2 d_2_39 + 2 d_2_14 + 1 d_1_12 + 2 d_2_151 + 2 d_2_90 + 2 d_2_187 + 2 d_2_176 + 2 d_2_81 + 2 d_2_59 + 2 d_2_64 + 1 d_1_23 + 2 d_2_97 + 1 d_1_34 + 1 d_1_19 + 4 d_2_183 + 1 d_1_18 + 2 d_2_163 + 4 d_2_129 + 1 d_1_26 + 1 d_1_5 + 2 d_2_188 + 2 d_2_175 + 1 d_1_27 + 2 d_2_76 + 2 d_2_37 + 4 d_2_67 + 1 d_1_31 + 1 d_1_6 + 4 d_2_153 + 1 d_1_17 + 2 d_2_209 + 2 d_2_31 + 1 d_1_33 + 2 d_2_193 + 2 d_2_29 + 2 d_2_202 + 2 d_2_160 + 2 d_2_137 + 1 d_1_9 + 3 d_1_11 + 2 d_2_123 + 3 d_1_29 + 1 d_1_1 + 3 d_1_16 + 2 d_2_98 + 1 d_1_4 + 1 d_1_28 + 1 d_1_30 + 2 d_2_25 + 3 d_1_3 + 2 d_2_157 + 2 d_2_69 + 2 d_2_79 + 2 d_2_21 + 2 d_2_60 + 2 d_2_19 + 4 d_2_73 + 2 d_2_148 + 2 d_2_186 + 1 d_1_2 + 3 d_1_32 + 1 d_1_0 + 1 d_1_21 + 1 d_1_10 + 2 d_2_61 + 2 d_2_56 + 1 d_1_7 + 2 d_2_18 + 2 d_2_159 + 1 d_1_20 + 4 d_2_208 + 2 d_2_40 + 1 d_1_15 + 2 d_2_138 + 2 d_2_94 + 2 d_2_177 + 2 d_2_206 + 2 d_2_68 + 2 d_2_85 + 2 d_2_91 + 2 d_2_101 + 3 d_1_8 + 2 d_2_214 + 2 d_2_109 + 2 d_2_213 + 2 d_2_172 + 1 d_1_35 + 2 d_2_199 + 1 d_1_25 + 1 d_1_13 + 2 d_2_141 + 1 d_1_24 + 2 d_2_66 + 2 d_2_171 + 2 d_2_107 + 2 d_2_78 + 2 d_2_165 + 1 d_1_14 + 2 d_2_184 + 2 d_2_51 <= 189
RuleLoad.S5:  2 d_2_57 + 2 d_2_69 + 2 d_2_62 + 2 d_2_24 + 2 d_2_14 + 2 d_2_19 + 2 d_2_145 + 2 d_1_0 + 2 d_2_115 + 2 d_2_120 + 2 d_2_64 + 2 d_2_15 + 2 d_2_127 + 2 d_2_18 + 2 d_2_163 + 2 d_2_142 + 2 d_2_204 + 2 d_2_119 + 2 d_2_129 + 2 d_1_26 + 2 d_2_35 + 2 d_2_188 + 2 d_2_82 + 2 d_2_70 + 2 d_2_9 + 2 d_1_6 + 2 d_2_91 + 2 d_2_114 + 2 d_1_33 + 2 d_2_214 + 2 d_2_58 + 2 d_2_27 + 2 d_2_10 + 2 d_2_84 + 2 d_2_178 + 2 d_2_48 + 2 d_2_173 + 2 d_1_28 + 2 d_2_132 + 2 d_2_74 + 2 d_2_165 + 2 d_1_3 <= 189
RuleLoad.S7:  2 d_2_157 + 2 d_2_6 + 2 d_2_52 + 2 d_2_3 + 2 d_2_90 + 2 d_2_65 + 2 d_2_33 + 2 d_1_34 + 2 d_1_7 + 2 d_2_134 + 2 d_2_95 + 2 d_2_190 + 2 d_2_100 + 2 d_2_93 + 2 d_2_34 + 2 d_2_166 + 2 d_2_41 + 2 d_2_92 + 2 d_2_121 + 2 d_2_76 + 2 d_2_32 + 2 d_2_37 + 2 d_2_67 + 2 d_2_2 + 2 d_1_17 + 2 d_2_31 + 2 d_2_125 + 2 d_2_13 + 2 d_2_169 + 2 d_2_162 + 2 d_2_104 + 2 d_2_75 + 2 d_2_123 + 2 d_2_99 + 2 d_2_141 + 2 d_1_29 + 2 d_2_171 + 2 d_2_144 + 2 d_1_4 + 2 d_1_30 + 2 d_2_25 + 2 d_2_51 <= 189
RuleLoad.S3:  1 d_2_43 + 1 d_2_194 + 1 d_2_38 + 1 d_2_52 + 1 d_2_24 + 1 d_2_14 + 1 d_2_195 + 1 d_2_102 + 1 d_2_96 + 1 d_2_140 + 3 d_2_187 + 1 d_2_59 + 1 d_2_54 + 3 d_2_183 + 1 d_2_211 + 1 d_2_163 + 3 d_2_12 + 1 d_2_168 + 1 d_2_129 + 3 d_2_87 + 1 d_2_181 + 1 d_2_116 + 1 d_2_41 + 1 d_2_126 + 1 d_2_77 + 1 d_2_45 + 2 d_1_27 + 1 d_2_139 + 1 d_2_32 + 1 d_2_2 + 1 d_2_16 + 1 d_2_113 + 1 d_2_185 + 1 d_2_29 + 3 d_2_202 + 1 d_2_135 + 1 d_2_162 + 1 d_2_10 + 1 d_2_122 + 3 d_2_130 + 1 d_2_75 + 1 d_2_89 + 1 d_2_123 + 1 d_2_99 + 1 d_2_111 + 3 d_2_152 + 1 d_2_173 + 3 d_2_26 + 1 d_2_157 + 1 d_2_215 + 1 d_2_80 + 1 d_2_69 + 3 d_2_200 + 1 d_2_21 + 1 d_2_60 + 1 d_2_3 + 1 d_2_212 + 1 d_2_73 + 1 d_2_161 + 3 d_2_63 + 1 d_2_145 + 1 d_2_180 + 1 d_2_61 + 2 d_1_10 + 1 d_2_143 + 1 d_2_71 + 1 d_2_112 + 1 d_2_56 + 3 d_2_28 + 1 d_2_95 + 1 d_2_133 + 1 d_2_208 + 1 d_2_119 + 1 d_2_34 + 1 d_2_192 + 3 d_2_103 + 1 d_2_23 + 1 d_2_155 + 1 d_2_138 + 1 d_2_92 + 1 d_2_9 + 3 d_2_177 + 1 d_2_30 + 1 d_2_206 + 1 d_2_170 + 1 d_2_68 + 1 d_2_101 + 1 d_2_58 + 1 d_2_109 + 1 d_2_5 + 3 d_2_196 + 3 d_2_179 + 1 d_2_105 + 3 d_2_7 + 3 d_2_88 + 1 d_2_141 + 1 d_2_83 + 1 d_2_171 + 3 d_2_107 + 1 d_2_78 + 1 d_2_165 + 3 d_2_210 + 1 d_2_51 + 2 d_1_22 + 1 d_2_39 + 3 d_2_174 + 1 d_2_151 + 1 d_2_65 + 1 d_2_90 + 1 d_2_176 + 1 d_2_1 + 1 d_2_81 + 1 d_2_115 + 1 d_2_15 + 1 d_2_64 + 1 d_2_120 + 1 d_2_97 + 1 d_2_117 + 1 d_2_204 + 1 d_2_35 + 2 d_1_5 + 1 d_2_166 + 1 d_2_118 + 1 d_2_188 + 3 d_2_175 + 1 d_2_154 + 1 d_2_37 + 1 d_2_76 + 1 d_2_121 + 1 d_2_67 + 1 d_2_153 + 1 d_2_53 + 1 d_2_209 + 1 d_2_136 + 1 d_2_31 + 1 d_2_114 + 3 d_2_86 + 3 d_2_193 + 3 d_2_167 + 1 d_2_13 + 1 d_2_27 + 1 d_2_169 + 1 d_2_160 + 3 d_2_137 + 3 d_2_17 + 1 d_2_20 + 2 d_1_11 + 1 d_2_44 + 1 d_2_46 + 3 d_2_11 + 1 d_2_178 + 1 d_2_182 + 1 d_2_22 + 1 d_2_189 + 2 d_1_1 + 1 d_2_48 + 1 d_2_98 + 1 d_2_198 + 1 d_2_128 + 1 d_2_25 + 1 d_2_57 + 3 d_2_42 + 1 d_2_6 + 3 d_2_79 + 1 d_2_147 + 1 d_2_62 + 1 d_2_19 + 3 d_2_148 + 1 d_2_186 + 1 d_2_158 + 1 d_2_33 + 3 d_2_156 + 1 d_2_50 + 1 d_2_49 + 1 d_2_191 + 1 d_2_127 + 1 d_2_18 + 1 d_2_159 + 1 d_2_134 + 1 d_2_72 + 1 d_2_142 + 1 d_2_190 + 1 d_2_47 + 3 d_2_149 + 1 d_2_40 + 3 d_2_124 + 1 d_2_93 + 1 d_2_100 + 1 d_2_207 + 1 d_2_82 + 1 d_2_70 + 1 d_2_94 + 3 d_2_201 + 1 d_2_146 + 1 d_2_197 + 1 d_2_85 + 1 d_2_91 + 1 d_2_131 + 1 d_2_214 + 1 d_2_125 + 1 d_2_4 + 1 d_2_213 + 1 d_2_36 + 1 d_2_205 + 1 d_2_110 + 1 d_2_172 + 1 d_2_104 + 1 d_2_164 + 1 d_2_0 + 1 d_2_203 + 1 d_2_84 + 1 d_2_199 + 3 d_2_108 + 1 d_2_55 + 1 d_2_66 + 1 d_2_144 + 1 d_2_8 + 1 d_2_132 + 1 d_2_74 + 1 d_2_106 + 3 d_2_184 + 1 d_2_150 <= 189
Binaries
d_1_0
d_1_1
d_1_2
d_1_3
d_1_4
d_1_5
d_1_6
d_1_7
d_1_8
d_1_9
d_1_10
d_1_11
d_1_12
d_1_13
d_1_14
d_1_15
d_1_16
d_1_17
d_1_18
d_1_19
d_1_20
d_1_21
d_1_22
d_1_23
d_1_24
d_1_25
d_1_26
d_1_27
d_1_28
d_1_29
d_1_30
d_1_31
d_1_32
d_1_33
d_1_34
d_1_35
d_2_0
d_2_1
d_2_2
d_2_3
d_2_4
d_2_5
d_2_6
d_2_7
d_2_8
d_2_9
d_2_10
d_2_11
d_2_12
d_2_13
d_2_14
d_2_15
d_2_16
d_2_17
d_2_18
d_2_19
d_2_20
d_2_21
d_2_22
d_2_23
d_2_24
d_2_25
d_2_26
d_2_27
d_2_28
d_2_29
d_2_30
d_2_31
d_2_32
d_2_33
d_2_34
d_2_35
d_2_36
d_2_37
d_2_38
d_2_39
d_2_40
d_2_41
d_2_42
d_2_43
d_2_44
d_2_45
d_2_46
d_2_47
d_2_48
d_2_49
d_2_50
d_2_51
d_2_52
d_2_53
d_2_54
d_2_55
d_2_56
d_2_57
d_2_58
d_2_59
d_2_60
d_2_61
d_2_62
d_2_63
d_2_64
d_2_65
d_2_66
d_2_67
d_2_68
d_2_69
d_2_70
d_2_71
d_2_72
d_2_73
d_2_74
d_2_75
d_2_76
d_2_77
d_2_78
d_2_79
d_2_80
d_2_81
d_2_82
d_2_83
d_2_84
d_2_85
d_2_86
d_2_87
d_2_88
d_2_89
d_2_90
d_2_91
d_2_92
d_2_93
d_2_94
d_2_95
d_2_96
d_2_97
d_2_98
d_2_99
d_2_100
d_2_101
d_2_102
d_2_103
d_2_104
d_2_105
d_2_106
d_2_107
d_2_108
d_2_109
d_2_110
d_2_111
d_2_112
d_2_113
d_2_114
d_2_115
d_2_116
d_2_117
d_2_118
d_2_119
d_2_120
d_2_121
d_2_122
d_2_123
d_2_124
d_2_125
d_2_126
d_2_127
d_2_128
d_2_129
d_2_130
d_2_131
d_2_132
d_2_133
d_2_134
d_2_135
d_2_136
d_2_137
d_2_138
d_2_139
d_2_140
d_2_141
d_2_142
d_2_143
d_2_144
d_2_145
d_2_146
d_2_147
d_2_148
d_2_149
d_2_150
d_2_151
d_2_152
d_2_153
d_2_154
d_2_155
d_2_156
d_2_157
d_2_158
d_2_159
d_2_160
d_2_161
d_2_162
d_2_163
d_2_164
d_2_165
d_2_166
d_2_167
d_2_168
d_2_169
d_2_170
d_2_171
d_2_172
d_2_173
d_2_174
d_2_175
d_2_176
d_2_177
d_2_178
d_2_179
d_2_180
d_2_181
d_2_182
d_2_183
d_2_184
d_2_185
d_2_186
d_2_187
d_2_188
d_2_189
d_2_190
d_2_191
d_2_192
d_2_193
d_2_194
d_2_195
d_2_196
d_2_197
d_2_198
d_2_199
d_2_200
d_2_201
d_2_202
d_2_203
d_2_204
d_2_205
d_2_206
d_2_207
d_2_208
d_2_209
d_2_210
d_2_211
d_2_212
d_2_213
d_2_214
d_2_215
End
